50
12420

380 63
323 128
930 449
690 518
406 847
947 218
211 382
99 70
838 138
350 604
777 764
48 117
716 966
908 567
23 875
171 796
418 310
659 852
323 578
90 672
262 266
348 259
366 703
283 821
135 950
517 199
828 797
12 444
865 419
591 789
490 610
558 50
495 283
456 888
326 520
250 365
706 851
860 665
355 605
543 661
931 435
961 417
903 96
936 758
819 609
931 601
525 208
332 718
29 478
169 968
